instances/knapsack/discrete_knapsack_uncertainty/knapsack_100_14.lp
\ Model knapsack_100_14
\ LP format - for model browsing. Use MPS format to capture full model detail.
\ Signature: 0x98b4e0718ea0846a
Minimize
  - 60 x[0] - 76 x[1] - 22 x[2] - 46 x[3] - 23 x[4] - 19 x[5] - 47 x[6]
   - 89 x[7] - 32 x[8] - 24 x[9] - 25 x[10] - 65 x[11] - 65 x[12]
   - 52 x[13] - 49 x[14] - 34 x[15] - 36 x[16] - 32 x[17] - 100 x[18]
   - 59 x[19] - 43 x[20] - 17 x[21] - 18 x[22] - 42 x[23] - 63 x[24]
   - 48 x[25] - 6 x[26] - 69 x[27] - 32 x[28] - 42 x[29] - 87 x[30]
   - 14 x[31] - 46 x[32] - 53 x[33] - 33 x[34] - 31 x[35] - 79 x[36]
   - 29 x[37] - 12 x[38] - 49 x[39] - 6 x[40] - 7 x[41] - 55 x[42]
   - 77 x[43] - 60 x[44] - 85 x[45] - 30 x[46] - 78 x[47] - 74 x[48]
   - 79 x[49] - 29 x[50] - 68 x[51] - 57 x[52] - 7 x[53] - 18 x[54]
   - 64 x[55] - 60 x[56] - 26 x[57] - 50 x[58] - 61 x[59] - 70 x[60]
   - 40 x[61] - 99 x[62] - 31 x[63] - 12 x[64] - 55 x[65] - 11 x[66]
   - 91 x[67] - 94 x[68] - 67 x[69] - 47 x[70] - 53 x[71] - 75 x[72]
   - 15 x[73] - 24 x[74] - 92 x[75] - 36 x[76] - 75 x[77] - 6 x[78]
   - 61 x[79] - 77 x[80] - 48 x[81] - 83 x[82] - 32 x[83] - 23 x[84]
   - 90 x[85] - 4 x[86] - 65 x[87] - 14 x[88] - 48 x[89] - 4 x[90]
   - 95 x[91] - 23 x[92] - 62 x[93] - 50 x[94] - 52 x[95] - 35 x[96]
   - 86 x[97] - 66 x[98] - 38 x[99]
Subject To
 primal_upper: 91 x[0] + 100 x[1] + 82 x[2] + 91 x[3] + 52 x[4] + x[5]
   + 85 x[6] + 83 x[7] + 33 x[8] + 58 x[9] + 95 x[10] + 79 x[11] + 88 x[12]
   + 8 x[13] + 84 x[14] + 12 x[15] + 77 x[16] + 88 x[17] + 61 x[18]
   + 34 x[19] + 61 x[20] + 63 x[21] + 56 x[22] + 50 x[23] + 92 x[24]
   + 12 x[25] + 94 x[26] + 3 x[27] + 89 x[28] + 79 x[29] + 57 x[30]
   + 11 x[31] + 59 x[32] + 49 x[33] + 96 x[34] + 61 x[35] + 76 x[36]
   + 44 x[37] + 28 x[38] + 98 x[39] + 11 x[40] + 37 x[41] + 42 x[42]
   + 97 x[43] + 7 x[44] + 94 x[45] + 5 x[46] + 49 x[47] + 91 x[48]
   + 100 x[49] + 46 x[50] + 28 x[51] + 21 x[52] + 88 x[53] + 72 x[54]
   + 31 x[55] + 5 x[56] + 22 x[57] + 100 x[58] + 66 x[59] + 8 x[60]
   + 78 x[61] + 11 x[62] + 86 x[63] + 19 x[64] + 12 x[65] + 68 x[66]
   + 74 x[67] + 12 x[68] + x[69] + 97 x[70] + 61 x[71] + 2 x[72] + 7 x[73]
   + 27 x[74] + 32 x[75] + 34 x[76] + 27 x[77] + 32 x[78] + 82 x[79]
   + 85 x[80] + 49 x[81] + 74 x[82] + 29 x[83] + 77 x[84] + 17 x[85]
   + 15 x[86] + 68 x[87] + 58 x[88] + 7 x[89] + 44 x[90] + 88 x[91]
   + 96 x[92] + 39 x[93] + 32 x[94] + 93 x[95] + 29 x[96] + 16 x[97]
   + 20 x[98] + 48 x[99] + 9.1 r[0] + 10 r[1] + 8.2 r[2] + 9.1 r[3]
   + 5.2 r[4] + 0.1 r[5] + 8.5 r[6] + 8.3 r[7] + 3.3 r[8] + 5.8 r[9]
   + 9.5 r[10] + 7.9 r[11] + 8.8 r[12] + 0.8 r[13] + 8.4 r[14] + 1.2 r[15]
   + 7.7 r[16] + 8.8 r[17] + 6.1 r[18] + 3.4 r[19] + 6.1 r[20] + 6.3 r[21]
   + 5.6 r[22] + 5 r[23] + 9.2 r[24] + 1.2 r[25] + 9.4 r[26] + 0.3 r[27]
   + 8.9 r[28] + 7.9 r[29] + 5.7 r[30] + 1.1 r[31] + 5.9 r[32] + 4.9 r[33]
   + 9.6 r[34] + 6.1 r[35] + 7.6 r[36] + 4.4 r[37] + 2.8 r[38] + 9.8 r[39]
   + 1.1 r[40] + 3.7 r[41] + 4.2 r[42] + 9.7 r[43] + 0.7 r[44] + 9.4 r[45]
   + 0.5 r[46] + 4.9 r[47] + 9.1 r[48] + 10 r[49] + 4.6 r[50] + 2.8 r[51]
   + 2.1 r[52] + 8.8 r[53] + 7.2 r[54] + 3.1 r[55] + 0.5 r[56] + 2.2 r[57]
   + 10 r[58] + 6.6 r[59] + 0.8 r[60] + 7.8 r[61] + 1.1 r[62] + 8.6 r[63]
   + 1.9 r[64] + 1.2 r[65] + 6.8 r[66] + 7.4 r[67] + 1.2 r[68] + 0.1 r[69]
   + 9.7 r[70] + 6.1 r[71] + 0.2 r[72] + 0.7 r[73] + 2.7 r[74] + 3.2 r[75]
   + 3.4 r[76] + 2.7 r[77] + 3.2 r[78] + 8.2 r[79] + 8.5 r[80] + 4.9 r[81]
   + 7.4 r[82] + 2.9 r[83] + 7.7 r[84] + 1.7 r[85] + 1.5 r[86] + 6.8 r[87]
   + 5.8 r[88] + 0.7 r[89] + 4.4 r[90] + 8.8 r[91] + 9.6 r[92] + 3.9 r[93]
   + 3.2 r[94] + 9.3 r[95] + 2.9 r[96] + 1.6 r[97] + 2 r[98] + 4.8 r[99]
   <= 499
 primal_lower: 1.898653883129252 x[0] + 3.258972071458985 x[1]
   + 1.921571605842256 x[2] + 0.4585934922223073 x[3]
   + 4.786775610850828 x[4] + 4.628511834434763 x[5]
   + 3.310929514845838 x[6] + 4.705272968543867 x[7]
   + 0.6195548222349799 x[8] + 0.104132083538536 x[9]
   + 3.003278317132747 x[10] + 2.02144247113152 x[11]
   + 4.018998795115456 x[12] + 4.737449748288501 x[13]
   + 0.1975908594718649 x[14] + 0.90175179738018 x[15]
   + 2.822299645878145 x[16] + 3.86787180905291 x[17]
   + 2.188263330499408 x[18] + 3.787840001945854 x[19]
   + 1.729702908669271 x[20] + 3.152870143019 x[21]
   + 1.353395536113127 x[22] + 4.515655541408713 x[23]
   + 4.096307363879411 x[24] + 3.548569164704371 x[25]
   + 2.236229818940116 x[26] + 0.5076917869465583 x[27]
   + 0.0297873060513616 x[28] + 2.348041979756441 x[29]
   + 4.836921197095639 x[30] + 1.846076295132728 x[31]
   + 3.296125176270104 x[32] + 1.262023505961181 x[33]
   + 0.5530740980670465 x[34] + 2.022766451914527 x[35]
   + 4.491156081898855 x[36] + 4.546817888355691 x[37]
   + 1.687820845348424 x[38] + 3.937420870597083 x[39]
   + 4.548495925234126 x[40] + 2.165532166366709 x[41]
   + 3.162861022763078 x[42] + 2.064901656535012 x[43]
   + 0.3116000245648738 x[44] + 1.909236049446998 x[45]
   + 1.981102449180009 x[46] + 0.5927187689945416 x[47]
   + 1.314870776098731 x[48] + 3.778418830632577 x[49]
   + 2.920197160448783 x[50] + 0.7422099470890235 x[51]
   + 3.87264613464874 x[52] + 2.264939207029891 x[53]
   + 2.8274473296994 x[54] + 4.651668434508693 x[55]
   + 3.602618552443729 x[56] + 3.73089621528336 x[57]
   + 2.232676173027312 x[58] + 3.933347636176745 x[59]
   + 1.392088768473505 x[60] + 4.360396728148229 x[61]
   + 2.586962112142693 x[62] + 0.6824068014174171 x[63]
   + 4.151378511107558 x[64] + 1.303120203309425 x[65]
   + 2.273406553150221 x[66] + 0.9206531297425621 x[67]
   + 1.25464339962882 x[68] + 2.175010816432542 x[69]
   + 0.6342726465053531 x[70] + 2.553099459497863 x[71]
   + 0.9505743081025808 x[72] + 2.567222621623439 x[73]
   + 1.612811558439115 x[74] + 1.511691415615626 x[75]
   + 2.60793155749509 x[76] + 3.844490367592901 x[77]
   + 4.651799842484011 x[78] + 4.224295986831341 x[79]
   + 3.52410423558567 x[80] + 0.543277043959734 x[81]
   + 3.282691718817993 x[82] + 2.648086450045741 x[83]
   + 0.3633714945508643 x[84] + 1.242955396133943 x[85]
   + 2.437447157287589 x[86] + 4.238447580745932 x[87]
   + 0.9619200350676388 x[88] + 2.971815258529771 x[89]
   + 3.501830215001699 x[90] + 3.256853622876848 x[91]
   + 1.432930621452361 x[92] + 2.726148532421841 x[93]
   + 2.330134913448527 x[94] + 1.399235246331909 x[95]
   + 3.396196304523706 x[96] + 2.278480846665778 x[97]
   + 0.6621157274160485 x[98] + 0.0196474849403928 x[99] + 61 u[0]
   + 22 u[1] + 52 u[2] + 21 u[3] + 98 u[4] + 55 u[5] + 11 u[6] + 89 u[7]
   + 31 u[8] + 96 u[9] + 33 u[10] + 33 u[11] + 46 u[12] + 86 u[13]
   + 66 u[14] + 54 u[15] + 87 u[16] + 18 u[17] + 95 u[18] + 40 u[19]
   + 99 u[20] + 57 u[21] + 38 u[22] + 16 u[23] + 62 u[24] + 58 u[25]
   + 48 u[26] + 17 u[27] + 3 u[28] + 49 u[29] + 67 u[30] + 13 u[31]
   + 93 u[32] + 7 u[33] + 18 u[34] + 3 u[35] + 14 u[36] + 26 u[37]
   + 78 u[38] + 76 u[39] + 5 u[40] + 19 u[41] + 48 u[42] + 3 u[43]
   + 37 u[44] + 20 u[45] + 35 u[46] + 23 u[47] + 53 u[48] + 70 u[49]
   + 44 u[50] + 98 u[51] + 7 u[52] + 54 u[53] + 66 u[54] + 9 u[55]
   + 87 u[56] + 28 u[57] + 10 u[58] + 16 u[59] + 66 u[60] + 96 u[61]
   + 49 u[62] + 92 u[63] + 73 u[64] + 98 u[65] + 2 u[66] + 100 u[67]
   + 10 u[68] + 87 u[69] + 19 u[70] + 79 u[71] + 100 u[72] + 57 u[73]
   + 45 u[74] + 14 u[75] + 96 u[76] + 97 u[77] + 74 u[78] + 24 u[79]
   + 11 u[80] + 95 u[81] + 56 u[82] + 99 u[83] + 39 u[84] + 63 u[85]
   + 97 u[86] + 86 u[87] + 48 u[88] + 21 u[89] + 10 u[90] + 70 u[91]
   + 86 u[92] + 33 u[93] + 70 u[94] + 3 u[95] + 79 u[96] + 74 u[97]
   + 78 u[98] + 86 u[99] <= 8881
 mccormick1[0]: - u[0] + r[0] <= 0
 mccormick1[1]: - u[1] + r[1] <= 0
 mccormick1[2]: - u[2] + r[2] <= 0
 mccormick1[3]: - u[3] + r[3] <= 0
 mccormick1[4]: - u[4] + r[4] <= 0
 mccormick1[5]: - u[5] + r[5] <= 0
 mccormick1[6]: - u[6] + r[6] <= 0
 mccormick1[7]: - u[7] + r[7] <= 0
 mccormick1[8]: - u[8] + r[8] <= 0
 mccormick1[9]: - u[9] + r[9] <= 0
 mccormick1[10]: - u[10] + r[10] <= 0
 mccormick1[11]: - u[11] + r[11] <= 0
 mccormick1[12]: - u[12] + r[12] <= 0
 mccormick1[13]: - u[13] + r[13] <= 0
 mccormick1[14]: - u[14] + r[14] <= 0
 mccormick1[15]: - u[15] + r[15] <= 0
 mccormick1[16]: - u[16] + r[16] <= 0
 mccormick1[17]: - u[17] + r[17] <= 0
 mccormick1[18]: - u[18] + r[18] <= 0
 mccormick1[19]: - u[19] + r[19] <= 0
 mccormick1[20]: - u[20] + r[20] <= 0
 mccormick1[21]: - u[21] + r[21] <= 0
 mccormick1[22]: - u[22] + r[22] <= 0
 mccormick1[23]: - u[23] + r[23] <= 0
 mccormick1[24]: - u[24] + r[24] <= 0
 mccormick1[25]: - u[25] + r[25] <= 0
 mccormick1[26]: - u[26] + r[26] <= 0
 mccormick1[27]: - u[27] + r[27] <= 0
 mccormick1[28]: - u[28] + r[28] <= 0
 mccormick1[29]: - u[29] + r[29] <= 0
 mccormick1[30]: - u[30] + r[30] <= 0
 mccormick1[31]: - u[31] + r[31] <= 0
 mccormick1[32]: - u[32] + r[32] <= 0
 mccormick1[33]: - u[33] + r[33] <= 0
 mccormick1[34]: - u[34] + r[34] <= 0
 mccormick1[35]: - u[35] + r[35] <= 0
 mccormick1[36]: - u[36] + r[36] <= 0
 mccormick1[37]: - u[37] + r[37] <= 0
 mccormick1[38]: - u[38] + r[38] <= 0
 mccormick1[39]: - u[39] + r[39] <= 0
 mccormick1[40]: - u[40] + r[40] <= 0
 mccormick1[41]: - u[41] + r[41] <= 0
 mccormick1[42]: - u[42] + r[42] <= 0
 mccormick1[43]: - u[43] + r[43] <= 0
 mccormick1[44]: - u[44] + r[44] <= 0
 mccormick1[45]: - u[45] + r[45] <= 0
 mccormick1[46]: - u[46] + r[46] <= 0
 mccormick1[47]: - u[47] + r[47] <= 0
 mccormick1[48]: - u[48] + r[48] <= 0
 mccormick1[49]: - u[49] + r[49] <= 0
 mccormick1[50]: - u[50] + r[50] <= 0
 mccormick1[51]: - u[51] + r[51] <= 0
 mccormick1[52]: - u[52] + r[52] <= 0
 mccormick1[53]: - u[53] + r[53] <= 0
 mccormick1[54]: - u[54] + r[54] <= 0
 mccormick1[55]: - u[55] + r[55] <= 0
 mccormick1[56]: - u[56] + r[56] <= 0
 mccormick1[57]: - u[57] + r[57] <= 0
 mccormick1[58]: - u[58] + r[58] <= 0
 mccormick1[59]: - u[59] + r[59] <= 0
 mccormick1[60]: - u[60] + r[60] <= 0
 mccormick1[61]: - u[61] + r[61] <= 0
 mccormick1[62]: - u[62] + r[62] <= 0
 mccormick1[63]: - u[63] + r[63] <= 0
 mccormick1[64]: - u[64] + r[64] <= 0
 mccormick1[65]: - u[65] + r[65] <= 0
 mccormick1[66]: - u[66] + r[66] <= 0
 mccormick1[67]: - u[67] + r[67] <= 0
 mccormick1[68]: - u[68] + r[68] <= 0
 mccormick1[69]: - u[69] + r[69] <= 0
 mccormick1[70]: - u[70] + r[70] <= 0
 mccormick1[71]: - u[71] + r[71] <= 0
 mccormick1[72]: - u[72] + r[72] <= 0
 mccormick1[73]: - u[73] + r[73] <= 0
 mccormick1[74]: - u[74] + r[74] <= 0
 mccormick1[75]: - u[75] + r[75] <= 0
 mccormick1[76]: - u[76] + r[76] <= 0
 mccormick1[77]: - u[77] + r[77] <= 0
 mccormick1[78]: - u[78] + r[78] <= 0
 mccormick1[79]: - u[79] + r[79] <= 0
 mccormick1[80]: - u[80] + r[80] <= 0
 mccormick1[81]: - u[81] + r[81] <= 0
 mccormick1[82]: - u[82] + r[82] <= 0
 mccormick1[83]: - u[83] + r[83] <= 0
 mccormick1[84]: - u[84] + r[84] <= 0
 mccormick1[85]: - u[85] + r[85] <= 0
 mccormick1[86]: - u[86] + r[86] <= 0
 mccormick1[87]: - u[87] + r[87] <= 0
 mccormick1[88]: - u[88] + r[88] <= 0
 mccormick1[89]: - u[89] + r[89] <= 0
 mccormick1[90]: - u[90] + r[90] <= 0
 mccormick1[91]: - u[91] + r[91] <= 0
 mccormick1[92]: - u[92] + r[92] <= 0
 mccormick1[93]: - u[93] + r[93] <= 0
 mccormick1[94]: - u[94] + r[94] <= 0
 mccormick1[95]: - u[95] + r[95] <= 0
 mccormick1[96]: - u[96] + r[96] <= 0
 mccormick1[97]: - u[97] + r[97] <= 0
 mccormick1[98]: - u[98] + r[98] <= 0
 mccormick1[99]: - u[99] + r[99] <= 0
 mccormick2[0]: - x[0] + r[0] <= 0
 mccormick2[1]: - x[1] + r[1] <= 0
 mccormick2[2]: - x[2] + r[2] <= 0
 mccormick2[3]: - x[3] + r[3] <= 0
 mccormick2[4]: - x[4] + r[4] <= 0
 mccormick2[5]: - x[5] + r[5] <= 0
 mccormick2[6]: - x[6] + r[6] <= 0
 mccormick2[7]: - x[7] + r[7] <= 0
 mccormick2[8]: - x[8] + r[8] <= 0
 mccormick2[9]: - x[9] + r[9] <= 0
 mccormick2[10]: - x[10] + r[10] <= 0
 mccormick2[11]: - x[11] + r[11] <= 0
 mccormick2[12]: - x[12] + r[12] <= 0
 mccormick2[13]: - x[13] + r[13] <= 0
 mccormick2[14]: - x[14] + r[14] <= 0
 mccormick2[15]: - x[15] + r[15] <= 0
 mccormick2[16]: - x[16] + r[16] <= 0
 mccormick2[17]: - x[17] + r[17] <= 0
 mccormick2[18]: - x[18] + r[18] <= 0
 mccormick2[19]: - x[19] + r[19] <= 0
 mccormick2[20]: - x[20] + r[20] <= 0
 mccormick2[21]: - x[21] + r[21] <= 0
 mccormick2[22]: - x[22] + r[22] <= 0
 mccormick2[23]: - x[23] + r[23] <= 0
 mccormick2[24]: - x[24] + r[24] <= 0
 mccormick2[25]: - x[25] + r[25] <= 0
 mccormick2[26]: - x[26] + r[26] <= 0
 mccormick2[27]: - x[27] + r[27] <= 0
 mccormick2[28]: - x[28] + r[28] <= 0
 mccormick2[29]: - x[29] + r[29] <= 0
 mccormick2[30]: - x[30] + r[30] <= 0
 mccormick2[31]: - x[31] + r[31] <= 0
 mccormick2[32]: - x[32] + r[32] <= 0
 mccormick2[33]: - x[33] + r[33] <= 0
 mccormick2[34]: - x[34] + r[34] <= 0
 mccormick2[35]: - x[35] + r[35] <= 0
 mccormick2[36]: - x[36] + r[36] <= 0
 mccormick2[37]: - x[37] + r[37] <= 0
 mccormick2[38]: - x[38] + r[38] <= 0
 mccormick2[39]: - x[39] + r[39] <= 0
 mccormick2[40]: - x[40] + r[40] <= 0
 mccormick2[41]: - x[41] + r[41] <= 0
 mccormick2[42]: - x[42] + r[42] <= 0
 mccormick2[43]: - x[43] + r[43] <= 0
 mccormick2[44]: - x[44] + r[44] <= 0
 mccormick2[45]: - x[45] + r[45] <= 0
 mccormick2[46]: - x[46] + r[46] <= 0
 mccormick2[47]: - x[47] + r[47] <= 0
 mccormick2[48]: - x[48] + r[48] <= 0
 mccormick2[49]: - x[49] + r[49] <= 0
 mccormick2[50]: - x[50] + r[50] <= 0
 mccormick2[51]: - x[51] + r[51] <= 0
 mccormick2[52]: - x[52] + r[52] <= 0
 mccormick2[53]: - x[53] + r[53] <= 0
 mccormick2[54]: - x[54] + r[54] <= 0
 mccormick2[55]: - x[55] + r[55] <= 0
 mccormick2[56]: - x[56] + r[56] <= 0
 mccormick2[57]: - x[57] + r[57] <= 0
 mccormick2[58]: - x[58] + r[58] <= 0
 mccormick2[59]: - x[59] + r[59] <= 0
 mccormick2[60]: - x[60] + r[60] <= 0
 mccormick2[61]: - x[61] + r[61] <= 0
 mccormick2[62]: - x[62] + r[62] <= 0
 mccormick2[63]: - x[63] + r[63] <= 0
 mccormick2[64]: - x[64] + r[64] <= 0
 mccormick2[65]: - x[65] + r[65] <= 0
 mccormick2[66]: - x[66] + r[66] <= 0
 mccormick2[67]: - x[67] + r[67] <= 0
 mccormick2[68]: - x[68] + r[68] <= 0
 mccormick2[69]: - x[69] + r[69] <= 0
 mccormick2[70]: - x[70] + r[70] <= 0
 mccormick2[71]: - x[71] + r[71] <= 0
 mccormick2[72]: - x[72] + r[72] <= 0
 mccormick2[73]: - x[73] + r[73] <= 0
 mccormick2[74]: - x[74] + r[74] <= 0
 mccormick2[75]: - x[75] + r[75] <= 0
 mccormick2[76]: - x[76] + r[76] <= 0
 mccormick2[77]: - x[77] + r[77] <= 0
 mccormick2[78]: - x[78] + r[78] <= 0
 mccormick2[79]: - x[79] + r[79] <= 0
 mccormick2[80]: - x[80] + r[80] <= 0
 mccormick2[81]: - x[81] + r[81] <= 0
 mccormick2[82]: - x[82] + r[82] <= 0
 mccormick2[83]: - x[83] + r[83] <= 0
 mccormick2[84]: - x[84] + r[84] <= 0
 mccormick2[85]: - x[85] + r[85] <= 0
 mccormick2[86]: - x[86] + r[86] <= 0
 mccormick2[87]: - x[87] + r[87] <= 0
 mccormick2[88]: - x[88] + r[88] <= 0
 mccormick2[89]: - x[89] + r[89] <= 0
 mccormick2[90]: - x[90] + r[90] <= 0
 mccormick2[91]: - x[91] + r[91] <= 0
 mccormick2[92]: - x[92] + r[92] <= 0
 mccormick2[93]: - x[93] + r[93] <= 0
 mccormick2[94]: - x[94] + r[94] <= 0
 mccormick2[95]: - x[95] + r[95] <= 0
 mccormick2[96]: - x[96] + r[96] <= 0
 mccormick2[97]: - x[97] + r[97] <= 0
 mccormick2[98]: - x[98] + r[98] <= 0
 mccormick2[99]: - x[99] + r[99] <= 0
 mccormick3[0]: x[0] + u[0] - r[0] <= 1
 mccormick3[1]: x[1] + u[1] - r[1] <= 1
 mccormick3[2]: x[2] + u[2] - r[2] <= 1
 mccormick3[3]: x[3] + u[3] - r[3] <= 1
 mccormick3[4]: x[4] + u[4] - r[4] <= 1
 mccormick3[5]: x[5] + u[5] - r[5] <= 1
 mccormick3[6]: x[6] + u[6] - r[6] <= 1
 mccormick3[7]: x[7] + u[7] - r[7] <= 1
 mccormick3[8]: x[8] + u[8] - r[8] <= 1
 mccormick3[9]: x[9] + u[9] - r[9] <= 1
 mccormick3[10]: x[10] + u[10] - r[10] <= 1
 mccormick3[11]: x[11] + u[11] - r[11] <= 1
 mccormick3[12]: x[12] + u[12] - r[12] <= 1
 mccormick3[13]: x[13] + u[13] - r[13] <= 1
 mccormick3[14]: x[14] + u[14] - r[14] <= 1
 mccormick3[15]: x[15] + u[15] - r[15] <= 1
 mccormick3[16]: x[16] + u[16] - r[16] <= 1
 mccormick3[17]: x[17] + u[17] - r[17] <= 1
 mccormick3[18]: x[18] + u[18] - r[18] <= 1
 mccormick3[19]: x[19] + u[19] - r[19] <= 1
 mccormick3[20]: x[20] + u[20] - r[20] <= 1
 mccormick3[21]: x[21] + u[21] - r[21] <= 1
 mccormick3[22]: x[22] + u[22] - r[22] <= 1
 mccormick3[23]: x[23] + u[23] - r[23] <= 1
 mccormick3[24]: x[24] + u[24] - r[24] <= 1
 mccormick3[25]: x[25] + u[25] - r[25] <= 1
 mccormick3[26]: x[26] + u[26] - r[26] <= 1
 mccormick3[27]: x[27] + u[27] - r[27] <= 1
 mccormick3[28]: x[28] + u[28] - r[28] <= 1
 mccormick3[29]: x[29] + u[29] - r[29] <= 1
 mccormick3[30]: x[30] + u[30] - r[30] <= 1
 mccormick3[31]: x[31] + u[31] - r[31] <= 1
 mccormick3[32]: x[32] + u[32] - r[32] <= 1
 mccormick3[33]: x[33] + u[33] - r[33] <= 1
 mccormick3[34]: x[34] + u[34] - r[34] <= 1
 mccormick3[35]: x[35] + u[35] - r[35] <= 1
 mccormick3[36]: x[36] + u[36] - r[36] <= 1
 mccormick3[37]: x[37] + u[37] - r[37] <= 1
 mccormick3[38]: x[38] + u[38] - r[38] <= 1
 mccormick3[39]: x[39] + u[39] - r[39] <= 1
 mccormick3[40]: x[40] + u[40] - r[40] <= 1
 mccormick3[41]: x[41] + u[41] - r[41] <= 1
 mccormick3[42]: x[42] + u[42] - r[42] <= 1
 mccormick3[43]: x[43] + u[43] - r[43] <= 1
 mccormick3[44]: x[44] + u[44] - r[44] <= 1
 mccormick3[45]: x[45] + u[45] - r[45] <= 1
 mccormick3[46]: x[46] + u[46] - r[46] <= 1
 mccormick3[47]: x[47] + u[47] - r[47] <= 1
 mccormick3[48]: x[48] + u[48] - r[48] <= 1
 mccormick3[49]: x[49] + u[49] - r[49] <= 1
 mccormick3[50]: x[50] + u[50] - r[50] <= 1
 mccormick3[51]: x[51] + u[51] - r[51] <= 1
 mccormick3[52]: x[52] + u[52] - r[52] <= 1
 mccormick3[53]: x[53] + u[53] - r[53] <= 1
 mccormick3[54]: x[54] + u[54] - r[54] <= 1
 mccormick3[55]: x[55] + u[55] - r[55] <= 1
 mccormick3[56]: x[56] + u[56] - r[56] <= 1
 mccormick3[57]: x[57] + u[57] - r[57] <= 1
 mccormick3[58]: x[58] + u[58] - r[58] <= 1
 mccormick3[59]: x[59] + u[59] - r[59] <= 1
 mccormick3[60]: x[60] + u[60] - r[60] <= 1
 mccormick3[61]: x[61] + u[61] - r[61] <= 1
 mccormick3[62]: x[62] + u[62] - r[62] <= 1
 mccormick3[63]: x[63] + u[63] - r[63] <= 1
 mccormick3[64]: x[64] + u[64] - r[64] <= 1
 mccormick3[65]: x[65] + u[65] - r[65] <= 1
 mccormick3[66]: x[66] + u[66] - r[66] <= 1
 mccormick3[67]: x[67] + u[67] - r[67] <= 1
 mccormick3[68]: x[68] + u[68] - r[68] <= 1
 mccormick3[69]: x[69] + u[69] - r[69] <= 1
 mccormick3[70]: x[70] + u[70] - r[70] <= 1
 mccormick3[71]: x[71] + u[71] - r[71] <= 1
 mccormick3[72]: x[72] + u[72] - r[72] <= 1
 mccormick3[73]: x[73] + u[73] - r[73] <= 1
 mccormick3[74]: x[74] + u[74] - r[74] <= 1
 mccormick3[75]: x[75] + u[75] - r[75] <= 1
 mccormick3[76]: x[76] + u[76] - r[76] <= 1
 mccormick3[77]: x[77] + u[77] - r[77] <= 1
 mccormick3[78]: x[78] + u[78] - r[78] <= 1
 mccormick3[79]: x[79] + u[79] - r[79] <= 1
 mccormick3[80]: x[80] + u[80] - r[80] <= 1
 mccormick3[81]: x[81] + u[81] - r[81] <= 1
 mccormick3[82]: x[82] + u[82] - r[82] <= 1
 mccormick3[83]: x[83] + u[83] - r[83] <= 1
 mccormick3[84]: x[84] + u[84] - r[84] <= 1
 mccormick3[85]: x[85] + u[85] - r[85] <= 1
 mccormick3[86]: x[86] + u[86] - r[86] <= 1
 mccormick3[87]: x[87] + u[87] - r[87] <= 1
 mccormick3[88]: x[88] + u[88] - r[88] <= 1
 mccormick3[89]: x[89] + u[89] - r[89] <= 1
 mccormick3[90]: x[90] + u[90] - r[90] <= 1
 mccormick3[91]: x[91] + u[91] - r[91] <= 1
 mccormick3[92]: x[92] + u[92] - r[92] <= 1
 mccormick3[93]: x[93] + u[93] - r[93] <= 1
 mccormick3[94]: x[94] + u[94] - r[94] <= 1
 mccormick3[95]: x[95] + u[95] - r[95] <= 1
 mccormick3[96]: x[96] + u[96] - r[96] <= 1
 mccormick3[97]: x[97] + u[97] - r[97] <= 1
 mccormick3[98]: x[98] + u[98] - r[98] <= 1
 mccormick3[99]: x[99] + u[99] - r[99] <= 1
Bounds
Binaries
 x[0] x[1] x[2] x[3] x[4] x[5] x[6] x[7] x[8] x[9] x[10] x[11] x[12] x[13]
 x[14] x[15] x[16] x[17] x[18] x[19] x[20] x[21] x[22] x[23] x[24] x[25]
 x[26] x[27] x[28] x[29] x[30] x[31] x[32] x[33] x[34] x[35] x[36] x[37]
 x[38] x[39] x[40] x[41] x[42] x[43] x[44] x[45] x[46] x[47] x[48] x[49]
 x[50] x[51] x[52] x[53] x[54] x[55] x[56] x[57] x[58] x[59] x[60] x[61]
 x[62] x[63] x[64] x[65] x[66] x[67] x[68] x[69] x[70] x[71] x[72] x[73]
 x[74] x[75] x[76] x[77] x[78] x[79] x[80] x[81] x[82] x[83] x[84] x[85]
 x[86] x[87] x[88] x[89] x[90] x[91] x[92] x[93] x[94] x[95] x[96] x[97]
 x[98] x[99] u[0] u[1] u[2] u[3] u[4] u[5] u[6] u[7] u[8] u[9] u[10] u[11]
 u[12] u[13] u[14] u[15] u[16] u[17] u[18] u[19] u[20] u[21] u[22] u[23]
 u[24] u[25] u[26] u[27] u[28] u[29] u[30] u[31] u[32] u[33] u[34] u[35]
 u[36] u[37] u[38] u[39] u[40] u[41] u[42] u[43] u[44] u[45] u[46] u[47]
 u[48] u[49] u[50] u[51] u[52] u[53] u[54] u[55] u[56] u[57] u[58] u[59]
 u[60] u[61] u[62] u[63] u[64] u[65] u[66] u[67] u[68] u[69] u[70] u[71]
 u[72] u[73] u[74] u[75] u[76] u[77] u[78] u[79] u[80] u[81] u[82] u[83]
 u[84] u[85] u[86] u[87] u[88] u[89] u[90] u[91] u[92] u[93] u[94] u[95]
 u[96] u[97] u[98] u[99] r[0] r[1] r[2] r[3] r[4] r[5] r[6] r[7] r[8] r[9]
 r[10] r[11] r[12] r[13] r[14] r[15] r[16] r[17] r[18] r[19] r[20] r[21]
 r[22] r[23] r[24] r[25] r[26] r[27] r[28] r[29] r[30] r[31] r[32] r[33]
 r[34] r[35] r[36] r[37] r[38] r[39] r[40] r[41] r[42] r[43] r[44] r[45]
 r[46] r[47] r[48] r[49] r[50] r[51] r[52] r[53] r[54] r[55] r[56] r[57]
 r[58] r[59] r[60] r[61] r[62] r[63] r[64] r[65] r[66] r[67] r[68] r[69]
 r[70] r[71] r[72] r[73] r[74] r[75] r[76] r[77] r[78] r[79] r[80] r[81]
 r[82] r[83] r[84] r[85] r[86] r[87] r[88] r[89] r[90] r[91] r[92] r[93]
 r[94] r[95] r[96] r[97] r[98] r[99]
End
