instances/knapsack/discrete_knapsack_uncertainty/knapsack_100_14.kp
54061
100
499

91 9.1 60
100 10.0 76
82 8.2 22
91 9.1 46
52 5.2 23
1 0.1 19
85 8.5 47
83 8.3 89
33 3.3 32
58 5.8 24
95 9.5 25
79 7.9 65
88 8.8 65
8 0.8 52
84 8.4 49
12 1.2 34
77 7.7 36
88 8.8 32
61 6.1 100
34 3.4 59
61 6.1 43
63 6.3 17
56 5.6 18
50 5.0 42
92 9.2 63
12 1.2 48
94 9.4 6
3 0.3 69
89 8.9 32
79 7.9 42
57 5.7 87
11 1.1 14
59 5.9 46
49 4.9 53
96 9.6 33
61 6.1 31
76 7.6 79
44 4.4 29
28 2.8 12
98 9.8 49
11 1.1 6
37 3.7 7
42 4.2 55
97 9.7 77
7 0.7 60
94 9.4 85
5 0.5 30
49 4.9 78
91 9.1 74
100 10.0 79
46 4.6 29
28 2.8 68
21 2.1 57
88 8.8 7
72 7.2 18
31 3.1 64
5 0.5 60
22 2.2 26
100 10.0 50
66 6.6 61
8 0.8 70
78 7.8 40
11 1.1 99
86 8.6 31
19 1.9 12
12 1.2 55
68 6.8 11
74 7.4 91
12 1.2 94
1 0.1 67
97 9.7 47
61 6.1 53
2 0.2 75
7 0.7 15
27 2.7 24
32 3.2 92
34 3.4 36
27 2.7 75
32 3.2 6
82 8.2 61
85 8.5 77
49 4.9 48
74 7.4 83
29 2.9 32
77 7.7 23
17 1.7 90
15 1.5 4
68 6.8 65
58 5.8 14
7 0.7 48
44 4.4 4
88 8.8 95
96 9.6 23
39 3.9 62
32 3.2 50
93 9.3 52
29 2.9 35
16 1.6 86
20 2.0 66
48 4.8 38

8881
490

[1.8986538831292519 3.2589720714589854 1.9215716058422556 0.45859349222230733 4.786775610850828 4.628511834434763 3.310929514845838 4.705272968543867 0.6195548222349799 0.10413208353853601 3.0032783171327466 2.02144247113152 4.018998795115456 4.737449748288501 0.1975908594718649 0.90175179738018 2.8222996458781453 3.8678718090529096 2.1882633304994084 3.7878400019458542 1.7297029086692712 3.1528701430190003 1.3533955361131271 4.515655541408713 4.096307363879411 3.548569164704371 2.2362298189401164 0.5076917869465583 0.029787306051361564 2.3480419797564407 4.836921197095639 1.8460762951327279 3.296125176270104 1.2620235059611806 0.5530740980670465 2.0227664519145274 4.491156081898855 4.546817888355691 1.6878208453484242 3.937420870597083 4.548495925234126 2.1655321663667086 3.1628610227630785 2.0649016565350116 0.3116000245648738 1.909236049446998 1.981102449180009 0.5927187689945416 1.3148707760987306 3.778418830632577 2.920197160448783 0.7422099470890235 3.8726461346487397 2.2649392070298915 2.8274473296994 4.651668434508693 3.6026185524437286 3.7308962152833596 2.2326761730273117 3.933347636176745 1.3920887684735055 4.3603967281482285 2.586962112142693 0.682406801417417 4.151378511107558 1.3031202033094251 2.273406553150221 0.9206531297425621 1.2546433996288195 2.175010816432542 0.6342726465053531 2.553099459497863 0.9505743081025808 2.567222621623439 1.6128115584391145 1.5116914156156256 2.60793155749509 3.8444903675929005 4.651799842484011 4.224295986831341 3.5241042355856704 0.543277043959734 3.282691718817993 2.6480864500457413 0.36337149455086426 1.2429553961339426 2.437447157287589 4.238447580745932 0.9619200350676388 2.9718152585297712 3.5018302150016987 3.2568536228768483 1.4329306214523607 2.726148532421841 2.3301349134485267 1.399235246331909 3.396196304523706 2.2784808466657784 0.6621157274160485 0.019647484940392836]

[61 22 52 21 98 55 11 89 31 96 33 33 46 86 66 54 87 18 95 40 99 57 38 16 62 58 48 17 3 49 67 13 93 7 18 3 14 26 78 76 5 19 48 3 37 20 35 23 53 70 44 98 7 54 66 9 87 28 10 16 66 96 49 92 73 98 2 100 10 87 19 79 100 57 45 14 96 97 74 24 11 95 56 99 39 63 97 86 48 21 10 70 86 33 70 3 79 74 78 86]
